40 40
41 85 1
9 37 1
77 18 1
34 83 1
4 20 1
40 53 1
33 37 1
4 60 1
10 44 1
38 46 1
11 55 1
85 91 1
48 12 1
23 6 1
66 94 1
64 33 1
42 12 1
53 53 1
87 11 1
66 75 1
45 67 1
15 44 1
96 93 1
44 38 1
48 33 1
31 67 1
48 64 1
88 78 1
73 98 1
58 46 1
33 78 1
20 83 1
74 84 1
85 35 1
74 25 1
96 77 1
42 47 1
33 23 1
24 27 1
5 15 1
100 100 
100 100 
100 100 
100 100 
100 100 
100 100 
100 100 
100 100 
100 100 
100 100 
100 100 
100 100 
100 100 
100 100 
100 100 
100 100 
100 100 
100 100 
100 100 
100 100 
100 100 
100 100 
100 100 
100 100 
100 100 
100 100 
100 100 
100 100 
100 100 
100 100 
100 100 
100 100 
100 100 
100 100 
100 100 
100 100 
100 100 
100 100 
100 100 
100 100 
